data/instances/vrp_files/train_74.vrp
NAME : 74
COMMENT : Generated instance No. 74
TYPE : CVRP
DIMENSION : 21
EDGE_WEIGHT_TYPE : EUC_2D
CAPACITY : 30
NODE_COORD_SECTION
 1 835 196
 2 523 319
 3 469 502
 4 200 315
 5 791 915
 6 359 306
 7 195 678
 8 323 987
 9 325 394
 10 603 801
 11 469 422
 12 995 10
 13 895 149
 14 785 617
 15 341 873
 16 12 226
 17 566 351
 18 610 24
 19 116 127
 20 189 459
 21 752 905
DEMAND_SECTION
1 0
2 4
3 2
4 4
5 1
6 2
7 8
8 6
9 2
10 6
11 10
12 9
13 7
14 9
15 5
16 7
17 7
18 3
19 7
20 1
21 9
DEPOT_SECTION
 1
 -1
EOF